p tw 173 185
1 2
2 86
3 14
4 5
4 24
5 6
6 7
6 11
7 8
8 9
9 10
10 16
11 12
12 13
13 15
14 25
15 16
16 17
17 18
17 24
18 19
19 20
20 21
21 22
22 23
23 24
24 26
25 36
26 27
27 28
28 29
29 30
30 128
31 32
32 33
33 34
33 82
34 35
35 37
36 47
37 38
38 39
39 40
40 41
41 42
42 43
43 44
43 61
44 45
45 46
46 48
47 58
48 49
49 50
50 51
51 52
52 53
52 54
53 82
54 55
55 56
56 57
57 59
58 69
59 60
60 61
61 62
62 63
63 64
64 65
65 66
66 67
67 68
68 70
69 80
70 71
71 72
72 73
73 74
74 75
75 76
76 77
77 78
78 79
79 81
80 84
81 82
82 83
84 85
85 87
86 97
87 88
88 89
89 90
90 91
91 92
92 93
93 94
93 31
94 95
95 96
96 98
97 108
98 99
99 100
100 101
101 102
102 103
103 104
103 107
104 105
105 106
106 110
107 109
108 119
109 110
110 111
111 112
112 113
113 114
114 115
115 116
116 117
117 118
118 120
118 82
119 130
120 121
121 122
122 123
123 124
124 125
125 126
126 127
127 128
128 129
129 131
130 141
131 132
131 82
132 133
133 134
134 135
135 136
136 137
137 138
138 139
139 140
140 142
141 152
141 25
142 143
143 144
143 149
144 145
145 146
146 147
147 148
148 149
148 24
149 150
150 151
151 153
152 163
153 154
154 155
155 156
156 157
157 158
158 159
159 160
160 161
161 162
162 164
163 3
164 165
165 166
166 167
167 168
168 169
169 170
170 171
171 172
172 173
173 4
